p cnf 12 50 
5 2 -10 0
12 -10 5 0
5 2 10 0
7 1 -11 0
4 -12 -5 0
7 10 5 0
-12 -6 5 0
4 6 -1 0
11 8 -5 0
-9 11 -10 0
2 7 3 0
8 6 -1 0
6 -5 -3 0
-2 -3 -9 0
-5 -12 8 0
-4 -11 -7 0
4 1 -3 0
11 -5 -3 0
-12 -3 -2 0
6 -8 3 0
-2 -8 3 0
2 -1 3 0
-1 11 -5 0
-8 1 -10 0
-10 4 -1 0
12 -10 -9 0
-5 4 -7 0
3 8 -7 0
2 -10 -8 0
-10 -1 5 0
-10 -3 -4 0
2 -6 3 0
5 3 9 0
1 6 7 0
-8 -2 -1 0
-4 9 5 0
11 -8 12 0
5 -6 9 0
-11 4 -2 0
-3 10 6 0
-8 11 4 0
-6 -9 4 0
1 6 7 0
6 -9 -7 0
2 -9 -8 0
-4 -9 -10 0
6 2 11 0
8 -7 3 0
4 -12 5 0
-9 8 2 0
